60995752007504903455011,13,1,2,012,2,1,2,09,8,1,2,015,2,1,2,07,12,1,2,09,8,1,2,011,3,1,2,011,7,1,2,08,11,1,2,013,2,1,2,04,14,1,2,012,3,1,2,011,9,1,2,06,7,1,2,08,10,1,2,01,5,1,2,010,1,1,2,01,5,1,2,07,15,1,2,09,9,1,2,014,10,1,2,015,10,1,2,05,9,1,2,04,1,1,2,010,3,1,2,02,1,1,2,010,3,1,2,05,7,1,2,014,13,1,2,06,2,1,2,06,12,1,2,014,10,1,2,03,11,1,2,012,2,1,2,015,8,1,2,01,4,1,2,03,10,1,2,08,12,1,2,012,1,1,2,05,7,1,2,013,1,1,2,05,3,1,2,015,4,1,2,02,12,1,2,08,12,1,2,04,14,1,2,08,11,1,2,012,9,1,2,02,12,1,2,014,1,1,2,0